predicate alldifferentBut0Choco(array [int] of var int: x);
predicate value_precede_chain_intChoco(array [int] of int: c,array [int] of var int: x);
array [1..2] of int: X_INTRODUCED_30_ = [1,2];
array [1..4] of int: X_INTRODUCED_31_ = [3,4,5,6];
array [1..1] of int: X_INTRODUCED_32_ = [7];
array [1..3] of int: X_INTRODUCED_33_ = [8,9,10];
array [1..25] of int: X_INTRODUCED_115_ = [1,-1748,-1748,-1748,-1748,-1748,-5880,-5880,-5880,-5880,-5880,-5880,-5880,-1056,-1056,-1056,-1056,-1056,-1056,-1056,-910,-600,-600,-600,-2072];
var {0,3,4,5,6,8,9,10}: X_INTRODUCED_0_;
var {0,3,4,5,6,8,9,10}: X_INTRODUCED_1_;
var {0,3,4,5,6,8,9,10}: X_INTRODUCED_2_;
var {0,3,4,5,6,8,9,10}: X_INTRODUCED_3_;
var {0,3,4,5,6,8,9,10}: X_INTRODUCED_4_;
var {0,1,2,3,4,5,6,8,9,10}: X_INTRODUCED_7_;
var {0,1,2,3,4,5,6,8,9,10}: X_INTRODUCED_8_;
var {0,1,2,3,4,5,6,8,9,10}: X_INTRODUCED_9_;
var {0,1,2,3,4,5,6,8,9,10}: X_INTRODUCED_10_;
var {0,1,2,3,4,5,6,8,9,10}: X_INTRODUCED_11_;
var {0,1,2,3,4,5,6,8,9,10}: X_INTRODUCED_12_;
var {0,1,2,3,4,5,6,8,9,10}: X_INTRODUCED_13_;
var {0,1,2,3,4,5,6,8,9,10}: X_INTRODUCED_14_;
var {0,3,4,5,6}: X_INTRODUCED_15_;
var {0,3,4,5,6}: X_INTRODUCED_16_;
var {0,3,4,5,6}: X_INTRODUCED_17_;
var {0,3,4,5,6}: X_INTRODUCED_18_;
var {0,3,4,5,6}: X_INTRODUCED_19_;
var {0,3,4,5,6}: X_INTRODUCED_20_;
var 0..10: X_INTRODUCED_21_;
var 0..10: X_INTRODUCED_22_;
var 0..10: X_INTRODUCED_23_;
var 0..10: X_INTRODUCED_24_;
var {0,3,4,5,6,8,9,10}: X_INTRODUCED_25_;
var 0..62074: objective:: output_var:: is_defined_var;
var bool: X_INTRODUCED_34_ ::var_is_introduced :: is_defined_var;
var 0..1: X_INTRODUCED_35_ ::var_is_introduced :: is_defined_var;
var bool: X_INTRODUCED_38_ ::var_is_introduced :: is_defined_var;
var 0..1: X_INTRODUCED_39_ ::var_is_introduced :: is_defined_var;
var bool: X_INTRODUCED_41_ ::var_is_introduced :: is_defined_var;
var 0..1: X_INTRODUCED_42_ ::var_is_introduced :: is_defined_var;
var bool: X_INTRODUCED_44_ ::var_is_introduced :: is_defined_var;
var 0..1: X_INTRODUCED_45_ ::var_is_introduced :: is_defined_var;
var bool: X_INTRODUCED_47_ ::var_is_introduced :: is_defined_var;
var 0..1: X_INTRODUCED_48_ ::var_is_introduced :: is_defined_var;
var bool: X_INTRODUCED_50_ ::var_is_introduced :: is_defined_var;
var 0..1: X_INTRODUCED_51_ ::var_is_introduced :: is_defined_var;
var bool: X_INTRODUCED_54_ ::var_is_introduced :: is_defined_var;
var 0..1: X_INTRODUCED_55_ ::var_is_introduced :: is_defined_var;
var bool: X_INTRODUCED_57_ ::var_is_introduced :: is_defined_var;
var 0..1: X_INTRODUCED_58_ ::var_is_introduced :: is_defined_var;
var bool: X_INTRODUCED_60_ ::var_is_introduced :: is_defined_var;
var 0..1: X_INTRODUCED_61_ ::var_is_introduced :: is_defined_var;
var bool: X_INTRODUCED_63_ ::var_is_introduced :: is_defined_var;
var 0..1: X_INTRODUCED_64_ ::var_is_introduced :: is_defined_var;
var bool: X_INTRODUCED_66_ ::var_is_introduced :: is_defined_var;
var 0..1: X_INTRODUCED_67_ ::var_is_introduced :: is_defined_var;
var bool: X_INTRODUCED_69_ ::var_is_introduced :: is_defined_var;
var 0..1: X_INTRODUCED_70_ ::var_is_introduced :: is_defined_var;
var bool: X_INTRODUCED_72_ ::var_is_introduced :: is_defined_var;
var 0..1: X_INTRODUCED_73_ ::var_is_introduced :: is_defined_var;
var bool: X_INTRODUCED_76_ ::var_is_introduced :: is_defined_var;
var 0..1: X_INTRODUCED_77_ ::var_is_introduced :: is_defined_var;
var bool: X_INTRODUCED_79_ ::var_is_introduced :: is_defined_var;
var 0..1: X_INTRODUCED_80_ ::var_is_introduced :: is_defined_var;
var bool: X_INTRODUCED_82_ ::var_is_introduced :: is_defined_var;
var 0..1: X_INTRODUCED_83_ ::var_is_introduced :: is_defined_var;
var bool: X_INTRODUCED_85_ ::var_is_introduced :: is_defined_var;
var 0..1: X_INTRODUCED_86_ ::var_is_introduced :: is_defined_var;
var bool: X_INTRODUCED_88_ ::var_is_introduced :: is_defined_var;
var 0..1: X_INTRODUCED_89_ ::var_is_introduced :: is_defined_var;
var bool: X_INTRODUCED_91_ ::var_is_introduced :: is_defined_var;
var 0..1: X_INTRODUCED_92_ ::var_is_introduced :: is_defined_var;
var bool: X_INTRODUCED_94_ ::var_is_introduced :: is_defined_var;
var 0..1: X_INTRODUCED_95_ ::var_is_introduced :: is_defined_var;
var bool: X_INTRODUCED_98_ ::var_is_introduced :: is_defined_var;
var 0..1: X_INTRODUCED_99_ ::var_is_introduced :: is_defined_var;
var bool: X_INTRODUCED_102_ ::var_is_introduced :: is_defined_var;
var 0..1: X_INTRODUCED_103_ ::var_is_introduced :: is_defined_var;
var bool: X_INTRODUCED_105_ ::var_is_introduced :: is_defined_var;
var 0..1: X_INTRODUCED_106_ ::var_is_introduced :: is_defined_var;
var bool: X_INTRODUCED_108_ ::var_is_introduced :: is_defined_var;
var 0..1: X_INTRODUCED_109_ ::var_is_introduced :: is_defined_var;
var bool: X_INTRODUCED_116_ ::var_is_introduced :: is_defined_var;
var bool: X_INTRODUCED_117_ ::var_is_introduced :: is_defined_var;
var bool: X_INTRODUCED_118_ ::var_is_introduced :: is_defined_var;
var bool: X_INTRODUCED_119_ ::var_is_introduced :: is_defined_var;
var bool: X_INTRODUCED_120_ ::var_is_introduced :: is_defined_var;
var bool: X_INTRODUCED_121_ ::var_is_introduced :: is_defined_var;
var bool: X_INTRODUCED_122_ ::var_is_introduced :: is_defined_var;
var bool: X_INTRODUCED_123_ ::var_is_introduced :: is_defined_var;
var 0..1: X_INTRODUCED_125_ ::var_is_introduced :: is_defined_var;
var 0..1: X_INTRODUCED_126_ ::var_is_introduced :: is_defined_var;
var 0..1: X_INTRODUCED_127_ ::var_is_introduced :: is_defined_var;
var 0..1: X_INTRODUCED_128_ ::var_is_introduced :: is_defined_var;
var 0..1: X_INTRODUCED_129_ ::var_is_introduced :: is_defined_var;
var 0..1: X_INTRODUCED_130_ ::var_is_introduced :: is_defined_var;
var 0..1: X_INTRODUCED_131_ ::var_is_introduced :: is_defined_var;
var 0..1: X_INTRODUCED_132_ ::var_is_introduced :: is_defined_var;
var 0..0: X_INTRODUCED_5_ = 0;
var 0..0: X_INTRODUCED_6_ = 0;
array [1..26] of var int: assign:: output_array([1..26]) = [X_INTRODUCED_0_,X_INTRODUCED_1_,X_INTRODUCED_2_,X_INTRODUCED_3_,X_INTRODUCED_4_,0,0,X_INTRODUCED_7_,X_INTRODUCED_8_,X_INTRODUCED_9_,X_INTRODUCED_10_,X_INTRODUCED_11_,X_INTRODUCED_12_,X_INTRODUCED_13_,X_INTRODUCED_14_,X_INTRODUCED_15_,X_INTRODUCED_16_,X_INTRODUCED_17_,X_INTRODUCED_18_,X_INTRODUCED_19_,X_INTRODUCED_20_,X_INTRODUCED_21_,X_INTRODUCED_22_,X_INTRODUCED_23_,X_INTRODUCED_24_,X_INTRODUCED_25_];
array [1..15] of var int: X_INTRODUCED_27_ ::var_is_introduced  = [X_INTRODUCED_0_,X_INTRODUCED_1_,X_INTRODUCED_2_,X_INTRODUCED_3_,X_INTRODUCED_4_,0,0,X_INTRODUCED_7_,X_INTRODUCED_8_,X_INTRODUCED_9_,X_INTRODUCED_10_,X_INTRODUCED_11_,X_INTRODUCED_12_,X_INTRODUCED_13_,X_INTRODUCED_25_];
array [1..18] of var int: X_INTRODUCED_28_ ::var_is_introduced  = [X_INTRODUCED_7_,X_INTRODUCED_8_,X_INTRODUCED_9_,X_INTRODUCED_10_,X_INTRODUCED_11_,X_INTRODUCED_12_,X_INTRODUCED_13_,X_INTRODUCED_14_,X_INTRODUCED_15_,X_INTRODUCED_16_,X_INTRODUCED_17_,X_INTRODUCED_18_,X_INTRODUCED_19_,X_INTRODUCED_20_,X_INTRODUCED_22_,X_INTRODUCED_23_,X_INTRODUCED_24_,X_INTRODUCED_25_];
array [1..11] of var int: X_INTRODUCED_29_ ::var_is_introduced  = [X_INTRODUCED_7_,X_INTRODUCED_8_,X_INTRODUCED_9_,X_INTRODUCED_10_,X_INTRODUCED_11_,X_INTRODUCED_12_,X_INTRODUCED_13_,X_INTRODUCED_21_,X_INTRODUCED_22_,X_INTRODUCED_23_,X_INTRODUCED_24_];
array [1..25] of var int: X_INTRODUCED_114_ ::var_is_introduced  = [objective,X_INTRODUCED_35_,X_INTRODUCED_39_,X_INTRODUCED_42_,X_INTRODUCED_45_,X_INTRODUCED_48_,X_INTRODUCED_51_,X_INTRODUCED_55_,X_INTRODUCED_58_,X_INTRODUCED_61_,X_INTRODUCED_64_,X_INTRODUCED_67_,X_INTRODUCED_70_,X_INTRODUCED_73_,X_INTRODUCED_77_,X_INTRODUCED_80_,X_INTRODUCED_83_,X_INTRODUCED_86_,X_INTRODUCED_89_,X_INTRODUCED_92_,X_INTRODUCED_95_,X_INTRODUCED_99_,X_INTRODUCED_103_,X_INTRODUCED_106_,X_INTRODUCED_109_];
array [1..36] of var int: X_INTRODUCED_133_ ::var_is_introduced  = [X_INTRODUCED_125_,X_INTRODUCED_126_,X_INTRODUCED_127_,X_INTRODUCED_128_,X_INTRODUCED_129_,X_INTRODUCED_130_,X_INTRODUCED_131_,X_INTRODUCED_132_,1,1,X_INTRODUCED_0_,X_INTRODUCED_1_,X_INTRODUCED_2_,X_INTRODUCED_3_,X_INTRODUCED_4_,0,0,X_INTRODUCED_7_,X_INTRODUCED_8_,X_INTRODUCED_9_,X_INTRODUCED_10_,X_INTRODUCED_11_,X_INTRODUCED_12_,X_INTRODUCED_13_,X_INTRODUCED_14_,X_INTRODUCED_15_,X_INTRODUCED_16_,X_INTRODUCED_17_,X_INTRODUCED_18_,X_INTRODUCED_19_,X_INTRODUCED_20_,X_INTRODUCED_21_,X_INTRODUCED_22_,X_INTRODUCED_23_,X_INTRODUCED_24_,X_INTRODUCED_25_];
constraint alldifferentBut0Choco(X_INTRODUCED_27_):: bounds;
constraint alldifferentBut0Choco(X_INTRODUCED_28_):: bounds;
constraint alldifferentBut0Choco(X_INTRODUCED_29_):: bounds;
constraint value_precede_chain_intChoco(X_INTRODUCED_30_,assign);
constraint value_precede_chain_intChoco(X_INTRODUCED_31_,assign);
constraint value_precede_chain_intChoco(X_INTRODUCED_32_,assign);
constraint value_precede_chain_intChoco(X_INTRODUCED_33_,assign);
constraint int_lin_eq(X_INTRODUCED_115_,X_INTRODUCED_114_,0):: defines_var(objective);
constraint int_le_reif(1,X_INTRODUCED_0_,X_INTRODUCED_34_):: defines_var(X_INTRODUCED_34_);
constraint bool2int(X_INTRODUCED_34_,X_INTRODUCED_35_):: defines_var(X_INTRODUCED_35_);
constraint int_le_reif(1,X_INTRODUCED_1_,X_INTRODUCED_38_):: defines_var(X_INTRODUCED_38_);
constraint bool2int(X_INTRODUCED_38_,X_INTRODUCED_39_):: defines_var(X_INTRODUCED_39_);
constraint int_le_reif(1,X_INTRODUCED_2_,X_INTRODUCED_41_):: defines_var(X_INTRODUCED_41_);
constraint bool2int(X_INTRODUCED_41_,X_INTRODUCED_42_):: defines_var(X_INTRODUCED_42_);
constraint int_le_reif(1,X_INTRODUCED_3_,X_INTRODUCED_44_):: defines_var(X_INTRODUCED_44_);
constraint bool2int(X_INTRODUCED_44_,X_INTRODUCED_45_):: defines_var(X_INTRODUCED_45_);
constraint int_le_reif(1,X_INTRODUCED_4_,X_INTRODUCED_47_):: defines_var(X_INTRODUCED_47_);
constraint bool2int(X_INTRODUCED_47_,X_INTRODUCED_48_):: defines_var(X_INTRODUCED_48_);
constraint int_le_reif(1,X_INTRODUCED_7_,X_INTRODUCED_50_):: defines_var(X_INTRODUCED_50_);
constraint bool2int(X_INTRODUCED_50_,X_INTRODUCED_51_):: defines_var(X_INTRODUCED_51_);
constraint int_le_reif(1,X_INTRODUCED_8_,X_INTRODUCED_54_):: defines_var(X_INTRODUCED_54_);
constraint bool2int(X_INTRODUCED_54_,X_INTRODUCED_55_):: defines_var(X_INTRODUCED_55_);
constraint int_le_reif(1,X_INTRODUCED_9_,X_INTRODUCED_57_):: defines_var(X_INTRODUCED_57_);
constraint bool2int(X_INTRODUCED_57_,X_INTRODUCED_58_):: defines_var(X_INTRODUCED_58_);
constraint int_le_reif(1,X_INTRODUCED_10_,X_INTRODUCED_60_):: defines_var(X_INTRODUCED_60_);
constraint bool2int(X_INTRODUCED_60_,X_INTRODUCED_61_):: defines_var(X_INTRODUCED_61_);
constraint int_le_reif(1,X_INTRODUCED_11_,X_INTRODUCED_63_):: defines_var(X_INTRODUCED_63_);
constraint bool2int(X_INTRODUCED_63_,X_INTRODUCED_64_):: defines_var(X_INTRODUCED_64_);
constraint int_le_reif(1,X_INTRODUCED_12_,X_INTRODUCED_66_):: defines_var(X_INTRODUCED_66_);
constraint bool2int(X_INTRODUCED_66_,X_INTRODUCED_67_):: defines_var(X_INTRODUCED_67_);
constraint int_le_reif(1,X_INTRODUCED_13_,X_INTRODUCED_69_):: defines_var(X_INTRODUCED_69_);
constraint bool2int(X_INTRODUCED_69_,X_INTRODUCED_70_):: defines_var(X_INTRODUCED_70_);
constraint int_le_reif(1,X_INTRODUCED_14_,X_INTRODUCED_72_):: defines_var(X_INTRODUCED_72_);
constraint bool2int(X_INTRODUCED_72_,X_INTRODUCED_73_):: defines_var(X_INTRODUCED_73_);
constraint int_le_reif(1,X_INTRODUCED_15_,X_INTRODUCED_76_):: defines_var(X_INTRODUCED_76_);
constraint bool2int(X_INTRODUCED_76_,X_INTRODUCED_77_):: defines_var(X_INTRODUCED_77_);
constraint int_le_reif(1,X_INTRODUCED_16_,X_INTRODUCED_79_):: defines_var(X_INTRODUCED_79_);
constraint bool2int(X_INTRODUCED_79_,X_INTRODUCED_80_):: defines_var(X_INTRODUCED_80_);
constraint int_le_reif(1,X_INTRODUCED_17_,X_INTRODUCED_82_):: defines_var(X_INTRODUCED_82_);
constraint bool2int(X_INTRODUCED_82_,X_INTRODUCED_83_):: defines_var(X_INTRODUCED_83_);
constraint int_le_reif(1,X_INTRODUCED_18_,X_INTRODUCED_85_):: defines_var(X_INTRODUCED_85_);
constraint bool2int(X_INTRODUCED_85_,X_INTRODUCED_86_):: defines_var(X_INTRODUCED_86_);
constraint int_le_reif(1,X_INTRODUCED_19_,X_INTRODUCED_88_):: defines_var(X_INTRODUCED_88_);
constraint bool2int(X_INTRODUCED_88_,X_INTRODUCED_89_):: defines_var(X_INTRODUCED_89_);
constraint int_le_reif(1,X_INTRODUCED_20_,X_INTRODUCED_91_):: defines_var(X_INTRODUCED_91_);
constraint bool2int(X_INTRODUCED_91_,X_INTRODUCED_92_):: defines_var(X_INTRODUCED_92_);
constraint int_le_reif(1,X_INTRODUCED_21_,X_INTRODUCED_94_):: defines_var(X_INTRODUCED_94_);
constraint bool2int(X_INTRODUCED_94_,X_INTRODUCED_95_):: defines_var(X_INTRODUCED_95_);
constraint int_le_reif(1,X_INTRODUCED_22_,X_INTRODUCED_98_):: defines_var(X_INTRODUCED_98_);
constraint bool2int(X_INTRODUCED_98_,X_INTRODUCED_99_):: defines_var(X_INTRODUCED_99_);
constraint int_le_reif(1,X_INTRODUCED_23_,X_INTRODUCED_102_):: defines_var(X_INTRODUCED_102_);
constraint bool2int(X_INTRODUCED_102_,X_INTRODUCED_103_):: defines_var(X_INTRODUCED_103_);
constraint int_le_reif(1,X_INTRODUCED_24_,X_INTRODUCED_105_):: defines_var(X_INTRODUCED_105_);
constraint bool2int(X_INTRODUCED_105_,X_INTRODUCED_106_):: defines_var(X_INTRODUCED_106_);
constraint int_le_reif(1,X_INTRODUCED_25_,X_INTRODUCED_108_):: defines_var(X_INTRODUCED_108_);
constraint bool2int(X_INTRODUCED_108_,X_INTRODUCED_109_):: defines_var(X_INTRODUCED_109_);
constraint int_le_reif(X_INTRODUCED_7_,0,X_INTRODUCED_116_):: defines_var(X_INTRODUCED_116_);
constraint int_le_reif(X_INTRODUCED_8_,0,X_INTRODUCED_117_):: defines_var(X_INTRODUCED_117_);
constraint int_le_reif(X_INTRODUCED_9_,0,X_INTRODUCED_118_):: defines_var(X_INTRODUCED_118_);
constraint int_le_reif(X_INTRODUCED_0_,0,X_INTRODUCED_119_):: defines_var(X_INTRODUCED_119_);
constraint int_le_reif(X_INTRODUCED_1_,0,X_INTRODUCED_120_):: defines_var(X_INTRODUCED_120_);
constraint int_le_reif(X_INTRODUCED_2_,0,X_INTRODUCED_121_):: defines_var(X_INTRODUCED_121_);
constraint int_le_reif(X_INTRODUCED_3_,0,X_INTRODUCED_122_):: defines_var(X_INTRODUCED_122_);
constraint int_le_reif(X_INTRODUCED_4_,0,X_INTRODUCED_123_):: defines_var(X_INTRODUCED_123_);
constraint bool2int(X_INTRODUCED_116_,X_INTRODUCED_125_):: defines_var(X_INTRODUCED_125_);
constraint bool2int(X_INTRODUCED_117_,X_INTRODUCED_126_):: defines_var(X_INTRODUCED_126_);
constraint bool2int(X_INTRODUCED_118_,X_INTRODUCED_127_):: defines_var(X_INTRODUCED_127_);
constraint bool2int(X_INTRODUCED_119_,X_INTRODUCED_128_):: defines_var(X_INTRODUCED_128_);
constraint bool2int(X_INTRODUCED_120_,X_INTRODUCED_129_):: defines_var(X_INTRODUCED_129_);
constraint bool2int(X_INTRODUCED_121_,X_INTRODUCED_130_):: defines_var(X_INTRODUCED_130_);
constraint bool2int(X_INTRODUCED_122_,X_INTRODUCED_131_):: defines_var(X_INTRODUCED_131_);
constraint bool2int(X_INTRODUCED_123_,X_INTRODUCED_132_):: defines_var(X_INTRODUCED_132_);
solve :: int_search(X_INTRODUCED_133_,input_order,indomain_min,complete) maximize objective;
